data;

param num_top:=5;

#nodes and edges of the physical network
param n := 10;

set E := (1,2) (1,3) (1,7) (2,4) (2,7) (3,5) (4,8) (5,6) (5,7) (6,7) (6,9) (7,8) (7,9) (8,10) (9,10) ;

#nodes and edges of the virtual networks
set Nl[1] := 6 9 7 10 4 ;
set Nl[2] := 7 2 4 8 9 ;
set Nl[3] := 3 8 6 1 2 ;
set Nl[4] := 10 1 2 6 9 ;
set Nl[5] := 7 8 9 6 4 ;

set El[1] := (6,9) (7,9) (7,10) (4,10) (4,6) (9,10) (4,9) (6,7) (6,10) (4,7) ;
set El[2] := (2,7) (2,4) (4,8) (8,9) (7,9) (7,8) (2,8) (4,7) (4,9) (2,9) ;
set El[3] := (3,8) (6,8) (1,6) (1,2) (2,3) (2,6) (1,8) (2,8) (1,3) (3,6) ;
set El[4] := (1,10) (1,2) (2,6) (6,9) (9,10) (2,9) (1,6) (1,9) (6,10) (2,10) ;
set El[5] := (7,8) (8,9) (6,9) (4,6) (4,7) (7,9) (6,8) (4,8) (4,9) (6,7) ;
